10
0, 498, 118, 523, 784, 719, 823, 408, 382, 914
498, 0, 418, 588, 356, 426, 368, 396, 177, 448
118, 418, 0, 580, 676, 601, 767, 291, 278, 855
523, 588, 580, 0, 942, 997, 672, 812, 636, 757
784, 356, 676, 942, 0, 215, 489, 482, 402, 511
719, 426, 601, 997, 215, 0, 671, 343, 374, 708
823, 368, 767, 672, 489, 671, 0, 758, 546, 93
408, 396, 291, 812, 482, 343, 758, 0, 226, 828
382, 177, 278, 636, 402, 374, 546, 226, 0, 623
914, 448, 855, 757, 511, 708, 93, 828, 623, 0
